;; translated from ./ctigar/dillig20.c.vmt
;; original benchmark available at: https://es-static.fbk.eu/people/griggio/ic3ia/index.html
;; author: Alberto Griggio <griggio@fbk.eu>
(set-logic HORN)
(declare-fun state (Bool Bool Bool Bool Bool Int Int Int Int Int Int Int) Bool)
(assert (forall ((|.s.2| Bool) (|.s.3| Bool) (|.s.0| Bool) (|.s.1| Bool) (|.s.2.next| Bool) (|.s.0.next| Bool) (|.s.1.next| Bool) (|.s.3.next| Bool) (|.s.4.next| Bool) (|main.i.next| Int) (|main.i| Int) (|main.j.next| Int) (|main.j| Int) (|main.k.next| Int) (|main.k| Int) (|main.x.next| Int) (|main.x| Int) (|main.m.next| Int) (|main.m| Int) (|main.n.next| Int) (|main.n| Int) (|main.y.next| Int) (|main.y| Int) (|.inputVar.0| Int) (|.s.4| Bool)) (=> (let ((.def_20 (not .s.4)))
(let ((.def_17 (not .s.3)))
(let ((.def_14 (not .s.2)))
(let ((.def_10 (not .s.1)))
(let ((.def_12 (and .def_10 .s.0)))
(let ((.def_15 (and .def_12 .def_14)))
(let ((.def_18 (and .def_15 .def_17)))
(let ((.def_21 (and .def_18 .def_20)))
.def_21)))))))) (state |.s.1| |.s.0| |.s.2| |.s.3| |.s.4| |main.i| |main.j| |main.k| |main.x| |main.m| |main.n| |main.y|))))
(assert (forall ((|.s.2| Bool) (|.s.3| Bool) (|.s.0| Bool) (|.s.1| Bool) (|.s.2.next| Bool) (|.s.0.next| Bool) (|.s.1.next| Bool) (|.s.3.next| Bool) (|.s.4.next| Bool) (|main.i.next| Int) (|main.i| Int) (|main.j.next| Int) (|main.j| Int) (|main.k.next| Int) (|main.k| Int) (|main.x.next| Int) (|main.x| Int) (|main.m.next| Int) (|main.m| Int) (|main.n.next| Int) (|main.n| Int) (|main.y.next| Int) (|main.y| Int) (|.inputVar.0| Int) (|.s.4| Bool)) (=> (and (state |.s.1| |.s.0| |.s.2| |.s.3| |.s.4| |main.i| |main.j| |main.k| |main.x| |main.m| |main.n| |main.y|) (let ((.def_22 (not .s.0)))
(let ((.def_10 (not .s.1)))
(let ((.def_23 (and .def_10 .def_22)))
(let ((.def_14 (not .s.2)))
(let ((.def_119 (and .def_14 .def_23)))
(let ((.def_17 (not .s.3)))
(let ((.def_270 (and .def_17 .def_119)))
(let ((.def_20 (not .s.4)))
(let ((.def_506 (and .def_20 .def_270)))
(let ((.def_507 (not .def_506)))
(let ((.def_74 (not .s.2.next)))
(let ((.def_31 (not .s.0.next)))
(let ((.def_29 (not .s.1.next)))
(let ((.def_32 (and .def_29 .def_31)))
(let ((.def_108 (and .def_32 .def_74)))
(let ((.def_107 (not .s.3.next)))
(let ((.def_109 (and .def_107 .def_108)))
(let ((.def_106 (not .s.4.next)))
(let ((.def_110 (and .def_106 .def_109)))
(let ((.def_41 (= main.i main.i.next)))
(let ((.def_111 (and .def_41 .def_110)))
(let ((.def_45 (= main.j main.j.next)))
(let ((.def_112 (and .def_45 .def_111)))
(let ((.def_49 (= main.k main.k.next)))
(let ((.def_113 (and .def_49 .def_112)))
(let ((.def_53 (= main.x main.x.next)))
(let ((.def_114 (and .def_53 .def_113)))
(let ((.def_57 (= main.m main.m.next)))
(let ((.def_115 (and .def_57 .def_114)))
(let ((.def_61 (= main.n main.n.next)))
(let ((.def_116 (and .def_61 .def_115)))
(let ((.def_65 (= main.y main.y.next)))
(let ((.def_117 (and .def_65 .def_116)))
(let ((.def_508 (or .def_117 .def_507)))
(let ((.def_91 (and .s.1.next .def_31)))
(let ((.def_92 (and .def_74 .def_91)))
(let ((.def_248 (and .def_92 .def_107)))
(let ((.def_497 (and .def_106 .def_248)))
(let ((.def_496 (= main.m.next 0)))
(let ((.def_498 (and .def_496 .def_497)))
(let ((.def_499 (and .def_41 .def_498)))
(let ((.def_500 (and .def_45 .def_499)))
(let ((.def_501 (and .def_49 .def_500)))
(let ((.def_502 (and .def_53 .def_501)))
(let ((.def_503 (and .def_61 .def_502)))
(let ((.def_504 (and .def_65 .def_503)))
(let ((.def_12 (and .def_10 .s.0)))
(let ((.def_15 (and .def_12 .def_14)))
(let ((.def_18 (and .def_15 .def_17)))
(let ((.def_21 (and .def_18 .def_20)))
(let ((.def_495 (not .def_21)))
(let ((.def_505 (or .def_495 .def_504)))
(let ((.def_509 (and .def_505 .def_508)))
(let ((.def_34 (and .def_32 .s.2.next)))
(let ((.def_229 (and .def_34 .def_107)))
(let ((.def_486 (and .def_106 .def_229)))
(let ((.def_487 (and .def_41 .def_486)))
(let ((.def_488 (and .def_45 .def_487)))
(let ((.def_489 (and .def_49 .def_488)))
(let ((.def_490 (and .def_53 .def_489)))
(let ((.def_491 (and .def_57 .def_490)))
(let ((.def_492 (and .def_61 .def_491)))
(let ((.def_493 (and .def_65 .def_492)))
(let ((.def_86 (and .s.1 .def_22)))
(let ((.def_87 (and .def_14 .def_86)))
(let ((.def_239 (and .def_17 .def_87)))
(let ((.def_472 (and .def_20 .def_239)))
(let ((.def_215 (* (- 1) main.y)))
(let ((.def_216 (* (- 1) main.x)))
(let ((.def_220 (+ .def_216 .def_215)))
(let ((.def_221 (+ main.k .def_220)))
(let ((.def_222 (= .def_221 0)))
(let ((.def_484 (and .def_222 .def_472)))
(let ((.def_485 (not .def_484)))
(let ((.def_494 (or .def_485 .def_493)))
(let ((.def_510 (and .def_494 .def_509)))
(let ((.def_73 (and .s.1.next .s.0.next)))
(let ((.def_75 (and .def_73 .def_74)))
(let ((.def_260 (and .def_75 .def_107)))
(let ((.def_475 (and .def_106 .def_260)))
(let ((.def_476 (and .def_41 .def_475)))
(let ((.def_477 (and .def_45 .def_476)))
(let ((.def_478 (and .def_49 .def_477)))
(let ((.def_479 (and .def_53 .def_478)))
(let ((.def_480 (and .def_57 .def_479)))
(let ((.def_481 (and .def_61 .def_480)))
(let ((.def_482 (and .def_65 .def_481)))
(let ((.def_223 (not .def_222)))
(let ((.def_473 (and .def_223 .def_472)))
(let ((.def_474 (not .def_473)))
(let ((.def_483 (or .def_474 .def_482)))
(let ((.def_511 (and .def_483 .def_510)))
(let ((.def_68 (and .s.1 .s.0)))
(let ((.def_69 (and .def_14 .def_68)))
(let ((.def_213 (and .def_17 .def_69)))
(let ((.def_469 (and .def_20 .def_213)))
(let ((.def_470 (not .def_469)))
(let ((.def_471 (or .def_117 .def_470)))
(let ((.def_512 (and .def_471 .def_511)))
(let ((.def_460 (= main.j.next 0)))
(let ((.def_123 (and .def_29 .s.0.next)))
(let ((.def_202 (and .s.2.next .def_123)))
(let ((.def_203 (and .def_107 .def_202)))
(let ((.def_316 (and .def_106 .def_203)))
(let ((.def_461 (and .def_316 .def_460)))
(let ((.def_462 (and .def_41 .def_461)))
(let ((.def_463 (and .def_49 .def_462)))
(let ((.def_464 (and .def_53 .def_463)))
(let ((.def_465 (and .def_57 .def_464)))
(let ((.def_466 (and .def_61 .def_465)))
(let ((.def_467 (and .def_65 .def_466)))
(let ((.def_24 (and .s.2 .def_23)))
(let ((.def_199 (and .def_17 .def_24)))
(let ((.def_458 (and .def_20 .def_199)))
(let ((.def_459 (not .def_458)))
(let ((.def_468 (or .def_459 .def_467)))
(let ((.def_513 (and .def_468 .def_512)))
(let ((.def_188 (and .s.2.next .def_91)))
(let ((.def_189 (and .def_107 .def_188)))
(let ((.def_449 (and .def_106 .def_189)))
(let ((.def_450 (and .def_41 .def_449)))
(let ((.def_451 (and .def_45 .def_450)))
(let ((.def_452 (and .def_49 .def_451)))
(let ((.def_453 (and .def_53 .def_452)))
(let ((.def_454 (and .def_57 .def_453)))
(let ((.def_455 (and .def_61 .def_454)))
(let ((.def_456 (and .def_65 .def_455)))
(let ((.def_431 (* (- 1) main.n)))
(let ((.def_432 (+ main.j .def_431)))
(let ((.def_433 (<= .def_432 (- 1))))
(let ((.def_175 (and .def_12 .s.2)))
(let ((.def_176 (and .def_17 .def_175)))
(let ((.def_430 (and .def_20 .def_176)))
(let ((.def_447 (and .def_430 .def_433)))
(let ((.def_448 (not .def_447)))
(let ((.def_457 (or .def_448 .def_456)))
(let ((.def_514 (and .def_457 .def_513)))
(let ((.def_124 (and .def_74 .def_123)))
(let ((.def_437 (and .def_107 .def_124)))
(let ((.def_438 (and .s.4.next .def_437)))
(let ((.def_439 (and .def_41 .def_438)))
(let ((.def_440 (and .def_45 .def_439)))
(let ((.def_441 (and .def_49 .def_440)))
(let ((.def_442 (and .def_53 .def_441)))
(let ((.def_443 (and .def_57 .def_442)))
(let ((.def_444 (and .def_61 .def_443)))
(let ((.def_445 (and .def_65 .def_444)))
(let ((.def_434 (not .def_433)))
(let ((.def_435 (and .def_430 .def_434)))
(let ((.def_436 (not .def_435)))
(let ((.def_446 (or .def_436 .def_445)))
(let ((.def_515 (and .def_446 .def_514)))
(let ((.def_420 (and .s.3.next .def_188)))
(let ((.def_421 (and .def_106 .def_420)))
(let ((.def_422 (and .def_41 .def_421)))
(let ((.def_423 (and .def_45 .def_422)))
(let ((.def_424 (and .def_49 .def_423)))
(let ((.def_425 (and .def_53 .def_424)))
(let ((.def_426 (and .def_57 .def_425)))
(let ((.def_427 (and .def_61 .def_426)))
(let ((.def_428 (and .def_65 .def_427)))
(let ((.def_405 (= main.i main.j)))
(let ((.def_417 (not .def_405)))
(let ((.def_160 (and .s.2 .def_86)))
(let ((.def_161 (and .def_17 .def_160)))
(let ((.def_404 (and .def_20 .def_161)))
(let ((.def_418 (and .def_404 .def_417)))
(let ((.def_419 (not .def_418)))
(let ((.def_429 (or .def_419 .def_428)))
(let ((.def_516 (and .def_429 .def_515)))
(let ((.def_164 (and .s.2.next .def_73)))
(let ((.def_165 (and .def_107 .def_164)))
(let ((.def_408 (and .def_106 .def_165)))
(let ((.def_409 (and .def_41 .def_408)))
(let ((.def_410 (and .def_45 .def_409)))
(let ((.def_411 (and .def_49 .def_410)))
(let ((.def_412 (and .def_53 .def_411)))
(let ((.def_413 (and .def_57 .def_412)))
(let ((.def_414 (and .def_61 .def_413)))
(let ((.def_415 (and .def_65 .def_414)))
(let ((.def_406 (and .def_404 .def_405)))
(let ((.def_407 (not .def_406)))
(let ((.def_416 (or .def_407 .def_415)))
(let ((.def_517 (and .def_416 .def_516)))
(let ((.def_150 (and .s.3.next .def_108)))
(let ((.def_395 (and .def_106 .def_150)))
(let ((.def_285 (* (- 1) main.x.next)))
(let ((.def_286 (+ main.x .def_285)))
(let ((.def_394 (= .def_286 (- 1))))
(let ((.def_396 (and .def_394 .def_395)))
(let ((.def_397 (and .def_41 .def_396)))
(let ((.def_398 (and .def_45 .def_397)))
(let ((.def_399 (and .def_49 .def_398)))
(let ((.def_400 (and .def_57 .def_399)))
(let ((.def_401 (and .def_61 .def_400)))
(let ((.def_402 (and .def_65 .def_401)))
(let ((.def_135 (and .s.2 .def_68)))
(let ((.def_136 (and .def_17 .def_135)))
(let ((.def_392 (and .def_20 .def_136)))
(let ((.def_393 (not .def_392)))
(let ((.def_403 (or .def_393 .def_402)))
(let ((.def_518 (and .def_403 .def_517)))
(let ((.def_300 (* (- 1) main.y.next)))
(let ((.def_301 (+ main.y .def_300)))
(let ((.def_383 (= .def_301 1)))
(let ((.def_125 (and .s.3.next .def_124)))
(let ((.def_273 (and .def_106 .def_125)))
(let ((.def_384 (and .def_273 .def_383)))
(let ((.def_385 (and .def_41 .def_384)))
(let ((.def_386 (and .def_45 .def_385)))
(let ((.def_387 (and .def_49 .def_386)))
(let ((.def_388 (and .def_53 .def_387)))
(let ((.def_389 (and .def_57 .def_388)))
(let ((.def_390 (and .def_61 .def_389)))
(let ((.def_120 (and .s.3 .def_119)))
(let ((.def_381 (and .def_20 .def_120)))
(let ((.def_382 (not .def_381)))
(let ((.def_391 (or .def_382 .def_390)))
(let ((.def_519 (and .def_391 .def_518)))
(let ((.def_365 (= .inputVar.0 0)))
(let ((.def_377 (not .def_365)))
(let ((.def_103 (and .def_15 .s.3)))
(let ((.def_363 (and .def_20 .def_103)))
(let ((.def_378 (and .def_363 .def_377)))
(let ((.def_379 (not .def_378)))
(let ((.def_36 (and .def_34 .s.3.next)))
(let ((.def_342 (and .def_36 .def_106)))
(let ((.def_343 (and .def_41 .def_342)))
(let ((.def_344 (and .def_45 .def_343)))
(let ((.def_345 (and .def_49 .def_344)))
(let ((.def_346 (and .def_53 .def_345)))
(let ((.def_347 (and .def_57 .def_346)))
(let ((.def_348 (and .def_61 .def_347)))
(let ((.def_349 (and .def_65 .def_348)))
(let ((.def_380 (or .def_349 .def_379)))
(let ((.def_520 (and .def_380 .def_519)))
(let ((.def_93 (and .s.3.next .def_92)))
(let ((.def_368 (and .def_93 .def_106)))
(let ((.def_369 (and .def_41 .def_368)))
(let ((.def_370 (and .def_45 .def_369)))
(let ((.def_371 (and .def_49 .def_370)))
(let ((.def_372 (and .def_53 .def_371)))
(let ((.def_373 (and .def_57 .def_372)))
(let ((.def_374 (and .def_61 .def_373)))
(let ((.def_375 (and .def_65 .def_374)))
(let ((.def_366 (and .def_363 .def_365)))
(let ((.def_367 (not .def_366)))
(let ((.def_376 (or .def_367 .def_375)))
(let ((.def_521 (and .def_376 .def_520)))
(let ((.def_76 (and .s.3.next .def_75)))
(let ((.def_354 (and .def_76 .def_106)))
(let ((.def_353 (= main.j main.m.next)))
(let ((.def_355 (and .def_353 .def_354)))
(let ((.def_356 (and .def_41 .def_355)))
(let ((.def_357 (and .def_45 .def_356)))
(let ((.def_358 (and .def_49 .def_357)))
(let ((.def_359 (and .def_53 .def_358)))
(let ((.def_360 (and .def_61 .def_359)))
(let ((.def_361 (and .def_65 .def_360)))
(let ((.def_88 (and .s.3 .def_87)))
(let ((.def_351 (and .def_20 .def_88)))
(let ((.def_352 (not .def_351)))
(let ((.def_362 (or .def_352 .def_361)))
(let ((.def_522 (and .def_362 .def_521)))
(let ((.def_70 (and .s.3 .def_69)))
(let ((.def_340 (and .def_20 .def_70)))
(let ((.def_341 (not .def_340)))
(let ((.def_350 (or .def_341 .def_349)))
(let ((.def_523 (and .def_350 .def_522)))
(let ((.def_330 (and .s.3.next .def_202)))
(let ((.def_331 (and .def_106 .def_330)))
(let ((.def_327 (* (- 1) main.j.next)))
(let ((.def_328 (+ main.j .def_327)))
(let ((.def_329 (= .def_328 (- 1))))
(let ((.def_332 (and .def_329 .def_331)))
(let ((.def_333 (and .def_41 .def_332)))
(let ((.def_334 (and .def_49 .def_333)))
(let ((.def_335 (and .def_53 .def_334)))
(let ((.def_336 (and .def_57 .def_335)))
(let ((.def_337 (and .def_61 .def_336)))
(let ((.def_338 (and .def_65 .def_337)))
(let ((.def_25 (and .s.3 .def_24)))
(let ((.def_325 (and .def_20 .def_25)))
(let ((.def_326 (not .def_325)))
(let ((.def_339 (or .def_326 .def_338)))
(let ((.def_524 (and .def_339 .def_523)))
(let ((.def_317 (and .def_41 .def_316)))
(let ((.def_318 (and .def_45 .def_317)))
(let ((.def_319 (and .def_49 .def_318)))
(let ((.def_320 (and .def_53 .def_319)))
(let ((.def_321 (and .def_57 .def_320)))
(let ((.def_322 (and .def_61 .def_321)))
(let ((.def_323 (and .def_65 .def_322)))
(let ((.def_313 (and .s.3 .def_175)))
(let ((.def_314 (and .def_20 .def_313)))
(let ((.def_315 (not .def_314)))
(let ((.def_324 (or .def_315 .def_323)))
(let ((.def_525 (and .def_324 .def_524)))
(let ((.def_303 (and .s.3.next .def_164)))
(let ((.def_304 (and .def_106 .def_303)))
(let ((.def_302 (= .def_301 (- 1))))
(let ((.def_305 (and .def_302 .def_304)))
(let ((.def_306 (and .def_41 .def_305)))
(let ((.def_307 (and .def_45 .def_306)))
(let ((.def_308 (and .def_49 .def_307)))
(let ((.def_309 (and .def_53 .def_308)))
(let ((.def_310 (and .def_57 .def_309)))
(let ((.def_311 (and .def_61 .def_310)))
(let ((.def_297 (and .s.3 .def_160)))
(let ((.def_298 (and .def_20 .def_297)))
(let ((.def_299 (not .def_298)))
(let ((.def_312 (or .def_299 .def_311)))
(let ((.def_526 (and .def_312 .def_525)))
(let ((.def_288 (and .s.4.next .def_109)))
(let ((.def_287 (= .def_286 1)))
(let ((.def_289 (and .def_287 .def_288)))
(let ((.def_290 (and .def_41 .def_289)))
(let ((.def_291 (and .def_45 .def_290)))
(let ((.def_292 (and .def_49 .def_291)))
(let ((.def_293 (and .def_57 .def_292)))
(let ((.def_294 (and .def_61 .def_293)))
(let ((.def_295 (and .def_65 .def_294)))
(let ((.def_282 (and .s.3 .def_135)))
(let ((.def_283 (and .def_20 .def_282)))
(let ((.def_284 (not .def_283)))
(let ((.def_296 (or .def_284 .def_295)))
(let ((.def_527 (and .def_296 .def_526)))
(let ((.def_274 (and .def_41 .def_273)))
(let ((.def_275 (and .def_45 .def_274)))
(let ((.def_276 (and .def_49 .def_275)))
(let ((.def_277 (and .def_53 .def_276)))
(let ((.def_278 (and .def_57 .def_277)))
(let ((.def_279 (and .def_61 .def_278)))
(let ((.def_280 (and .def_65 .def_279)))
(let ((.def_271 (and .s.4 .def_270)))
(let ((.def_272 (not .def_271)))
(let ((.def_281 (or .def_272 .def_280)))
(let ((.def_528 (and .def_281 .def_527)))
(let ((.def_261 (and .s.4.next .def_260)))
(let ((.def_262 (and .def_41 .def_261)))
(let ((.def_263 (and .def_45 .def_262)))
(let ((.def_264 (and .def_49 .def_263)))
(let ((.def_265 (and .def_53 .def_264)))
(let ((.def_266 (and .def_57 .def_265)))
(let ((.def_267 (and .def_61 .def_266)))
(let ((.def_268 (and .def_65 .def_267)))
(let ((.def_244 (<= main.n main.j)))
(let ((.def_243 (and .def_18 .s.4)))
(let ((.def_258 (and .def_243 .def_244)))
(let ((.def_259 (not .def_258)))
(let ((.def_269 (or .def_259 .def_268)))
(let ((.def_529 (and .def_269 .def_528)))
(let ((.def_249 (and .s.4.next .def_248)))
(let ((.def_250 (and .def_41 .def_249)))
(let ((.def_251 (and .def_45 .def_250)))
(let ((.def_252 (and .def_49 .def_251)))
(let ((.def_253 (and .def_53 .def_252)))
(let ((.def_254 (and .def_57 .def_253)))
(let ((.def_255 (and .def_61 .def_254)))
(let ((.def_256 (and .def_65 .def_255)))
(let ((.def_245 (not .def_244)))
(let ((.def_246 (and .def_243 .def_245)))
(let ((.def_247 (not .def_246)))
(let ((.def_257 (or .def_247 .def_256)))
(let ((.def_530 (and .def_257 .def_529)))
(let ((.def_240 (and .s.4 .def_239)))
(let ((.def_241 (not .def_240)))
(let ((.def_242 (or .def_117 .def_241)))
(let ((.def_531 (and .def_242 .def_530)))
(let ((.def_230 (and .s.4.next .def_229)))
(let ((.def_231 (and .def_41 .def_230)))
(let ((.def_232 (and .def_45 .def_231)))
(let ((.def_233 (and .def_49 .def_232)))
(let ((.def_234 (and .def_53 .def_233)))
(let ((.def_235 (and .def_57 .def_234)))
(let ((.def_236 (and .def_61 .def_235)))
(let ((.def_237 (and .def_65 .def_236)))
(let ((.def_214 (and .s.4 .def_213)))
(let ((.def_227 (and .def_214 .def_222)))
(let ((.def_228 (not .def_227)))
(let ((.def_238 (or .def_228 .def_237)))
(let ((.def_532 (and .def_238 .def_531)))
(let ((.def_224 (and .def_214 .def_223)))
(let ((.def_225 (not .def_224)))
(let ((.def_38 (and .def_36 .s.4.next)))
(let ((.def_42 (and .def_38 .def_41)))
(let ((.def_46 (and .def_42 .def_45)))
(let ((.def_50 (and .def_46 .def_49)))
(let ((.def_54 (and .def_50 .def_53)))
(let ((.def_58 (and .def_54 .def_57)))
(let ((.def_62 (and .def_58 .def_61)))
(let ((.def_66 (and .def_62 .def_65)))
(let ((.def_226 (or .def_66 .def_225)))
(let ((.def_533 (and .def_226 .def_532)))
(let ((.def_204 (and .s.4.next .def_203)))
(let ((.def_205 (and .def_41 .def_204)))
(let ((.def_206 (and .def_45 .def_205)))
(let ((.def_207 (and .def_49 .def_206)))
(let ((.def_208 (and .def_53 .def_207)))
(let ((.def_209 (and .def_57 .def_208)))
(let ((.def_210 (and .def_61 .def_209)))
(let ((.def_211 (and .def_65 .def_210)))
(let ((.def_200 (and .s.4 .def_199)))
(let ((.def_201 (not .def_200)))
(let ((.def_212 (or .def_201 .def_211)))
(let ((.def_534 (and .def_212 .def_533)))
(let ((.def_190 (and .s.4.next .def_189)))
(let ((.def_191 (and .def_41 .def_190)))
(let ((.def_192 (and .def_45 .def_191)))
(let ((.def_193 (and .def_49 .def_192)))
(let ((.def_194 (and .def_53 .def_193)))
(let ((.def_195 (and .def_57 .def_194)))
(let ((.def_196 (and .def_61 .def_195)))
(let ((.def_197 (and .def_65 .def_196)))
(let ((.def_179 (<= main.m (- 1))))
(let ((.def_180 (not .def_179)))
(let ((.def_141 (<= 1 main.n)))
(let ((.def_142 (not .def_141)))
(let ((.def_181 (or .def_142 .def_180)))
(let ((.def_177 (and .s.4 .def_176)))
(let ((.def_186 (and .def_177 .def_181)))
(let ((.def_187 (not .def_186)))
(let ((.def_198 (or .def_187 .def_197)))
(let ((.def_535 (and .def_198 .def_534)))
(let ((.def_182 (not .def_181)))
(let ((.def_183 (and .def_177 .def_182)))
(let ((.def_184 (not .def_183)))
(let ((.def_77 (and .s.4.next .def_76)))
(let ((.def_78 (and .def_41 .def_77)))
(let ((.def_79 (and .def_45 .def_78)))
(let ((.def_80 (and .def_49 .def_79)))
(let ((.def_81 (and .def_53 .def_80)))
(let ((.def_82 (and .def_57 .def_81)))
(let ((.def_83 (and .def_61 .def_82)))
(let ((.def_84 (and .def_65 .def_83)))
(let ((.def_185 (or .def_84 .def_184)))
(let ((.def_536 (and .def_185 .def_535)))
(let ((.def_166 (and .s.4.next .def_165)))
(let ((.def_167 (and .def_41 .def_166)))
(let ((.def_168 (and .def_45 .def_167)))
(let ((.def_169 (and .def_49 .def_168)))
(let ((.def_170 (and .def_53 .def_169)))
(let ((.def_171 (and .def_57 .def_170)))
(let ((.def_172 (and .def_61 .def_171)))
(let ((.def_173 (and .def_65 .def_172)))
(let ((.def_162 (and .s.4 .def_161)))
(let ((.def_163 (not .def_162)))
(let ((.def_174 (or .def_163 .def_173)))
(let ((.def_537 (and .def_174 .def_536)))
(let ((.def_151 (and .s.4.next .def_150)))
(let ((.def_152 (and .def_41 .def_151)))
(let ((.def_153 (and .def_45 .def_152)))
(let ((.def_154 (and .def_49 .def_153)))
(let ((.def_155 (and .def_53 .def_154)))
(let ((.def_156 (and .def_57 .def_155)))
(let ((.def_157 (and .def_61 .def_156)))
(let ((.def_158 (and .def_65 .def_157)))
(let ((.def_138 (<= main.n main.m)))
(let ((.def_139 (not .def_138)))
(let ((.def_143 (or .def_139 .def_142)))
(let ((.def_137 (and .s.4 .def_136)))
(let ((.def_148 (and .def_137 .def_143)))
(let ((.def_149 (not .def_148)))
(let ((.def_159 (or .def_149 .def_158)))
(let ((.def_538 (and .def_159 .def_537)))
(let ((.def_144 (not .def_143)))
(let ((.def_145 (and .def_137 .def_144)))
(let ((.def_146 (not .def_145)))
(let ((.def_94 (and .s.4.next .def_93)))
(let ((.def_95 (and .def_41 .def_94)))
(let ((.def_96 (and .def_45 .def_95)))
(let ((.def_97 (and .def_49 .def_96)))
(let ((.def_98 (and .def_53 .def_97)))
(let ((.def_99 (and .def_57 .def_98)))
(let ((.def_100 (and .def_61 .def_99)))
(let ((.def_101 (and .def_65 .def_100)))
(let ((.def_147 (or .def_101 .def_146)))
(let ((.def_539 (and .def_147 .def_538)))
(let ((.def_126 (and .s.4.next .def_125)))
(let ((.def_127 (and .def_41 .def_126)))
(let ((.def_128 (and .def_45 .def_127)))
(let ((.def_129 (and .def_49 .def_128)))
(let ((.def_130 (and .def_53 .def_129)))
(let ((.def_131 (and .def_57 .def_130)))
(let ((.def_132 (and .def_61 .def_131)))
(let ((.def_133 (and .def_65 .def_132)))
(let ((.def_121 (and .s.4 .def_120)))
(let ((.def_122 (not .def_121)))
(let ((.def_134 (or .def_122 .def_133)))
(let ((.def_540 (and .def_134 .def_539)))
(let ((.def_104 (and .s.4 .def_103)))
(let ((.def_105 (not .def_104)))
(let ((.def_118 (or .def_105 .def_117)))
(let ((.def_541 (and .def_118 .def_540)))
(let ((.def_89 (and .s.4 .def_88)))
(let ((.def_90 (not .def_89)))
(let ((.def_102 (or .def_90 .def_101)))
(let ((.def_542 (and .def_102 .def_541)))
(let ((.def_71 (and .s.4 .def_70)))
(let ((.def_72 (not .def_71)))
(let ((.def_85 (or .def_72 .def_84)))
(let ((.def_543 (and .def_85 .def_542)))
(let ((.def_26 (and .s.4 .def_25)))
(let ((.def_27 (not .def_26)))
(let ((.def_67 (or .def_27 .def_66)))
(let ((.def_544 (and .def_67 .def_543)))
.def_544))))))))))))))))))))))))))))))))))))))))))))))))))))))))))))))))))))))))))))))))))))))))))))))))))))))))))))))))))))))))))))))))))))))))))))))))))))))))))))))))))))))))))))))))))))))))))))))))))))))))))))))))))))))))))))))))))))))))))))))))))))))))))))))))))))))))))))))))))))))))))))))))))))))))))))))))))))))))))))))))))))))))))))))))))))))))))))))))))))))))))))))))))))))))))))))))))))))))))))))))))))))))))))))))))))))))))))))))))))))))))))))))))))))))))))))))))))))))))))))))))))))))))))))))))))))))))) (state |.s.1.next| |.s.0.next| |.s.2.next| |.s.3.next| |.s.4.next| |main.i.next| |main.j.next| |main.k.next| |main.x.next| |main.m.next| |main.n.next| |main.y.next|))))
(assert (forall ((|.s.2| Bool) (|.s.3| Bool) (|.s.0| Bool) (|.s.1| Bool) (|.s.2.next| Bool) (|.s.0.next| Bool) (|.s.1.next| Bool) (|.s.3.next| Bool) (|.s.4.next| Bool) (|main.i.next| Int) (|main.i| Int) (|main.j.next| Int) (|main.j| Int) (|main.k.next| Int) (|main.k| Int) (|main.x.next| Int) (|main.x| Int) (|main.m.next| Int) (|main.m| Int) (|main.n.next| Int) (|main.n| Int) (|main.y.next| Int) (|main.y| Int) (|.inputVar.0| Int) (|.s.4| Bool)) (=> (state |.s.1| |.s.0| |.s.2| |.s.3| |.s.4| |main.i| |main.j| |main.k| |main.x| |main.m| |main.n| |main.y|) (let ((.def_22 (not .s.0)))
(let ((.def_86 (and .s.1 .def_22)))
(let ((.def_14 (not .s.2)))
(let ((.def_87 (and .def_14 .def_86)))
(let ((.def_88 (and .s.3 .def_87)))
(let ((.def_89 (and .s.4 .def_88)))
(let ((.def_90 (not .def_89)))
(let ((.def_68 (and .s.1 .s.0)))
(let ((.def_69 (and .def_14 .def_68)))
(let ((.def_70 (and .s.3 .def_69)))
(let ((.def_71 (and .s.4 .def_70)))
(let ((.def_72 (not .def_71)))
(let ((.def_545 (and .def_72 .def_90)))
(let ((.def_10 (not .s.1)))
(let ((.def_23 (and .def_10 .def_22)))
(let ((.def_24 (and .s.2 .def_23)))
(let ((.def_25 (and .s.3 .def_24)))
(let ((.def_26 (and .s.4 .def_25)))
(let ((.def_27 (not .def_26)))
(let ((.def_546 (and .def_27 .def_545)))
.def_546)))))))))))))))))))))))
(check-sat)
